12 48 6 10
18 3 9 15 4 10 9 9 17 12 15 15 4 12 19 8 4 11 9 13 18 6 15 6 12 5 8 6 4 12 20 18 9 15 20 19 2 2 10 16 5 4 18 10 9 14 14 15 
11.49 11.61 1.7 11.85 15.25 6.7 0.28 14.85 9.64 6.46 9.58 3.76 1.58 8.32 8.31 6.03 11.48 6.1 10.27 14.96 9.8 12.75 11.06 11.44 8.52 11.69 15.28 2.03 12.26 7.42 14.44 3.42 6.63 5.15 5.52 11.74 6.89 3.28 3.7 13.82 11.18 10.25 9.93 7.35 3.51 11.63 3.49 7.83 
5.89 3.36 9.93 3.49 10.83 14.47 10.73 12.8 3.6 0.08 13.04 11.86 15.47 10.03 2.12 12.31 8.17 8.59 13.35 10.22 15.3 7.88 11.61 4.3 4.2 13.38 2.88 10.1 8.59 5.27 6.47 0.55 10.33 13.93 1.26 12.35 8.31 8.8 7.01 11.11 1.48 11.71 7.25 4.01 12.73 14.67 9.8 13.11 
3.51 6.42 0.35 2.78 1.97 7.1 10.61 4.44 12.32 0.44 8.04 11.75 11.03 13.02 8.94 6.56 6.81 9.13 15.15 7.3 5.62 0.26 12.78 0.9 10.17 7.91 5.4 5.84 6.31 8.23 15.17 6.66 9.06 13.07 13 10.1 10.05 5.86 6.82 9.08 11.22 11.07 2.71 7.24 4.06 4.05 16 12.16 
1.28 6.46 3.15 15.25 14.89 2.19 14.06 4.72 3.74 12.33 4.23 14.37 14.7 9.12 2.97 9.57 1.16 13.92 14.61 8.63 13.98 14.74 15.58 15.46 10.08 14.22 6.15 7.89 10.63 7.68 3.34 1.31 1.79 14.77 4.21 14.09 10.5 15.21 2.8 9.07 7.21 9.66 4.79 7 9.43 11 12.71 6.12 
3.27 4.1 14.87 15.63 13.15 5.86 4.42 1.31 8.54 14.68 1.34 12.65 7.28 0.15 5.02 1.31 13.45 1.19 9.01 0.31 3.24 2.26 6.8 15.82 14.89 4.61 3.23 9.7 11.11 15.64 11.1 6.92 6.81 1.55 1.83 0.81 12.13 14.89 1.59 14.87 7.42 0.61 10.83 7.22 15.13 12.18 13.38 2.89 
4.13 6.74 9.97 7.15 2.78 1.25 6.41 5.6 10.34 1.83 1.91 5.5 7.51 5.31 14.18 10.14 5.13 13.84 2.56 4.77 9.61 8.62 13.47 4.48 6.07 12.8 7.44 0.31 5.1 4.08 5.52 1.68 13.35 13.92 1.61 11.83 3.48 13.23 1.45 4.44 14.65 12.51 15.76 10.22 11.34 2.68 4.97 14.04 
8 8 8 8 8 8 8 8 8 8 8 8 8 8 8 8 8 8 8 8 8 8 8 8 8 8 8 8 8 8 8 8 8 8 8 8 8 8 8 8 8 8 8 8 8 8 8 8 
11.53 4.94 5.42 15.56 15.74 6.94 12.59 9.52 6.18 10.13 11.2 9.37 15.22 12.2 12.84 5.67 0.28 10.38 13.41 6.75 0.93 8.79 12.18 13.07 10.73 2.35 6.96 7.61 2.33 1.08 0.96 1.4 2.65 11.9 15.6 1.65 0.98 6.53 6.31 9.71 1.05 1.57 4.95 2.06 6.56 0.9 4.17 7.3 
5.55 5.05 15.93 8.63 7.91 4.64 15.85 1.27 7.44 11.62 2.49 4.64 10.86 0.45 13.95 8.8 13.01 3.86 8.81 8.67 4.64 0.5 15.59 7.22 0.39 14.9 11.54 7.52 9.08 12.68 10.14 2.53 6.09 10.93 5.95 0.41 13.39 15.72 5.01 1.73 5.12 13.19 9.79 3.5 1.28 8.87 4.44 11.85 
6.22 2.94 6.57 13.2 0.5 11.17 14.57 6.04 14.74 7.24 5.42 7.05 1 1.15 14.54 6.82 4.46 11.1 10.52 6.09 10.77 0.36 15.39 4.17 8.61 14.23 4.93 4.03 15.19 14.83 13.69 1 13.45 5.67 2.82 8.08 12.97 7.24 14.29 3.37 1.33 0.96 6.57 3.94 12.57 7.18 1.38 6.12 
8.65 14.98 5.28 2.15 1.03 3.58 1.47 15.83 3.47 14.45 3.2 2.37 13.75 14.91 4.39 10.24 10.52 2.94 9.61 2.71 14.67 3.61 11.14 8.85 12.47 2.05 15.37 3.51 6.45 8 15.98 13.83 14.62 14.48 2.3 12.32 2.86 9 1.41 14.56 13.2 12.34 10.01 9.97 6.22 2.43 1.43 6.44 
7.8 15.76 4.72 11.78 6.69 3.83 6.85 9.08 7.88 0.37 1.04 5.56 7.23 13.33 6.98 11.12 14.38 3.71 11.04 1.23 14.36 10.06 5.65 5.01 7.49 12.65 13.93 0.24 15.85 7.96 12.16 5.15 14.12 9.04 5.49 7.96 5.02 13.72 15.08 9.65 0.06 10.48 0.43 11.87 6.93 6.8 13.1 15.27 
1 1 1 1 1 1 1 1 1 1 1 1 1 1 1 1 1 1 1 1 1 1 1 1 1 1 1 1 1 1 1 1 1 1 1 1 1 1 1 1 1 1 1 1 1 1 1 1 
1 1 1 1 1 1 1 1 1 1 1 1 1 1 1 1 1 1 1 1 1 1 1 1 1 1 1 1 1 1 1 1 1 1 1 1 1 1 1 1 1 1 1 1 1 1 1 1 
1 1 1 1 1 1 1 1 1 1 1 1 1 1 1 1 1 1 1 1 1 1 1 1 1 1 1 1 1 1 1 1 1 1 1 1 1 1 1 1 1 1 1 1 1 1 1 1 
1 1 1 1 1 1 1 1 1 1 1 1 1 1 1 1 1 1 1 1 1 1 1 1 1 1 1 1 1 1 1 1 1 1 1 1 1 1 1 1 1 1 1 1 1 1 1 1 
1 1 1 1 1 1 1 1 1 1 1 1 1 1 1 1 1 1 1 1 1 1 1 1 1 1 1 1 1 1 1 1 1 1 1 1 1 1 1 1 1 1 1 1 1 1 1 1 
1 1 1 1 1 1 1 1 1 1 1 1 1 1 1 1 1 1 1 1 1 1 1 1 1 1 1 1 1 1 1 1 1 1 1 1 1 1 1 1 1 1 1 1 1 1 1 1 
1 1 1 1 1 1 1 1 1 1 1 1 1 1 1 1 1 1 1 1 1 1 1 1 1 1 1 1 1 1 1 1 1 1 1 1 1 1 1 1 1 1 1 1 1 1 1 1 
1 1 1 1 1 1 1 1 1 1 1 1 1 1 1 1 1 1 1 1 1 1 1 1 1 1 1 1 1 1 1 1 1 1 1 1 1 1 1 1 1 1 1 1 1 1 1 1 
1 1 1 1 1 1 1 1 1 1 1 1 1 1 1 1 1 1 1 1 1 1 1 1 1 1 1 1 1 1 1 1 1 1 1 1 1 1 1 1 1 1 1 1 1 1 1 1 
1 1 1 1 1 1 1 1 1 1 1 1 1 1 1 1 1 1 1 1 1 1 1 1 1 1 1 1 1 1 1 1 1 1 1 1 1 1 1 1 1 1 1 1 1 1 1 1 
1 1 1 1 1 1 1 1 1 1 1 1 1 1 1 1 1 1 1 1 1 1 1 1 1 1 1 1 1 1 1 1 1 1 1 1 1 1 1 1 1 1 1 1 1 1 1 1 
1 1 1 1 1 1 1 1 1 1 1 1 1 1 1 1 1 1 1 1 1 1 1 1 1 1 1 1 1 1 1 1 1 1 1 1 1 1 1 1 1 1 1 1 1 1 1 1 
0.01 0.01 0.01 0.01 0.01 0.01 0.01 0.01 0.01 0.01 0.01 0.01 0.01 0.01 0.01 0.01 0.01 0.01 0.01 0.01 0.01 0.01 0.01 0.01 0.01 0.01 0.01 0.01 0.01 0.01 0.01 0.01 0.01 0.01 0.01 0.01 0.01 0.01 0.01 0.01 0.01 0.01 0.01 0.01 0.01 0.01 0.01 0.01 
0.02 0.02 0.02 0.02 0.02 0.02 0.02 0.02 0.02 0.02 0.02 0.02 0.02 0.02 0.02 0.02 0.02 0.02 0.02 0.02 0.02 0.02 0.02 0.02 0.02 0.02 0.02 0.02 0.02 0.02 0.02 0.02 0.02 0.02 0.02 0.02 0.02 0.02 0.02 0.02 0.02 0.02 0.02 0.02 0.02 0.02 0.02 0.02 
0.03 0.03 0.03 0.03 0.03 0.03 0.03 0.03 0.03 0.03 0.03 0.03 0.03 0.03 0.03 0.03 0.03 0.03 0.03 0.03 0.03 0.03 0.03 0.03 0.03 0.03 0.03 0.03 0.03 0.03 0.03 0.03 0.03 0.03 0.03 0.03 0.03 0.03 0.03 0.03 0.03 0.03 0.03 0.03 0.03 0.03 0.03 0.03 
0.04 0.04 0.04 0.04 0.04 0.04 0.04 0.04 0.04 0.04 0.04 0.04 0.04 0.04 0.04 0.04 0.04 0.04 0.04 0.04 0.04 0.04 0.04 0.04 0.04 0.04 0.04 0.04 0.04 0.04 0.04 0.04 0.04 0.04 0.04 0.04 0.04 0.04 0.04 0.04 0.04 0.04 0.04 0.04 0.04 0.04 0.04 0.04 
0.05 0.05 0.05 0.05 0.05 0.05 0.05 0.05 0.05 0.05 0.05 0.05 0.05 0.05 0.05 0.05 0.05 0.05 0.05 0.05 0.05 0.05 0.05 0.05 0.05 0.05 0.05 0.05 0.05 0.05 0.05 0.05 0.05 0.05 0.05 0.05 0.05 0.05 0.05 0.05 0.05 0.05 0.05 0.05 0.05 0.05 0.05 0.05 
0.06 0.06 0.06 0.06 0.06 0.06 0.06 0.06 0.06 0.06 0.06 0.06 0.06 0.06 0.06 0.06 0.06 0.06 0.06 0.06 0.06 0.06 0.06 0.06 0.06 0.06 0.06 0.06 0.06 0.06 0.06 0.06 0.06 0.06 0.06 0.06 0.06 0.06 0.06 0.06 0.06 0.06 0.06 0.06 0.06 0.06 0.06 0.06 
0.07 0.07 0.07 0.07 0.07 0.07 0.07 0.07 0.07 0.07 0.07 0.07 0.07 0.07 0.07 0.07 0.07 0.07 0.07 0.07 0.07 0.07 0.07 0.07 0.07 0.07 0.07 0.07 0.07 0.07 0.07 0.07 0.07 0.07 0.07 0.07 0.07 0.07 0.07 0.07 0.07 0.07 0.07 0.07 0.07 0.07 0.07 0.07 
0.2 0.2 0.2 0.2 0.2 0.2 0.2 0.2 0.2 0.2 0.2 0.2 0.2 0.2 0.2 0.2 0.2 0.2 0.2 0.2 0.2 0.2 0.2 0.2 0.2 0.2 0.2 0.2 0.2 0.2 0.2 0.2 0.2 0.2 0.2 0.2 0.2 0.2 0.2 0.2 0.2 0.2 0.2 0.2 0.2 0.2 0.2 0.2 
0.4 0.4 0.4 0.4 0.4 0.4 0.4 0.4 0.4 0.4 0.4 0.4 0.4 0.4 0.4 0.4 0.4 0.4 0.4 0.4 0.4 0.4 0.4 0.4 0.4 0.4 0.4 0.4 0.4 0.4 0.4 0.4 0.4 0.4 0.4 0.4 0.4 0.4 0.4 0.4 0.4 0.4 0.4 0.4 0.4 0.4 0.4 0.4 
0.6 0.6 0.6 0.6 0.6 0.6 0.6 0.6 0.6 0.6 0.6 0.6 0.6 0.6 0.6 0.6 0.6 0.6 0.6 0.6 0.6 0.6 0.6 0.6 0.6 0.6 0.6 0.6 0.6 0.6 0.6 0.6 0.6 0.6 0.6 0.6 0.6 0.6 0.6 0.6 0.6 0.6 0.6 0.6 0.6 0.6 0.6 0.6 
0.8 0.8 0.8 0.8 0.8 0.8 0.8 0.8 0.8 0.8 0.8 0.8 0.8 0.8 0.8 0.8 0.8 0.8 0.8 0.8 0.8 0.8 0.8 0.8 0.8 0.8 0.8 0.8 0.8 0.8 0.8 0.8 0.8 0.8 0.8 0.8 0.8 0.8 0.8 0.8 0.8 0.8 0.8 0.8 0.8 0.8 0.8 0.8 
1 1 1 1 1 1 1 1 1 1 1 1 1 1 1 1 1 1 1 1 1 1 1 1 1 1 1 1 1 1 1 1 1 1 1 1 1 1 1 1 1 1 1 1 1 1 1 1 
